hp = 78651;
num_links = 19;
num_packets = 7;

occupancy = 
[|  1043,      -1,      -1,      -1,      -1,      -1,      -1,   %0-1
 |  1043,      -1,      -1,      -1,      -1,      -1,    1043,   %1-3
 |    -1,      -1,    1037,      -1,      -1,      -1,      -1,   %2-4
 |    -1,      -1,      -1,      -1,      -1,    1037,      -1,   %3-1
 |    -1,    1037,      -1,      -1,      -1,      -1,      -1,   %3-2
 |    -1,      -1,      -1,      -1,      -1,      -1,    1043,   %3-5
 |    -1,      -1,      -1,      29,      -1,      -1,      -1,   %4-5
 |    -1,      -1,      -1,      -1,    2061,      -1,      -1,   %5-3
 |  1043,      -1,      -1,      -1,      -1,      -1,      -1,   %L-0
 |    -1,      -1,      -1,      -1,      -1,    1037,      -1,   %1-L
 |    -1,      -1,      -1,      -1,      -1,      -1,    1043,   %L-1
 |    -1,    1037,      -1,      -1,      -1,      -1,      -1,   %2-L
 |    -1,      -1,    1037,      -1,      -1,      -1,      -1,   %L-2
 |  1043,      -1,      -1,      -1,    2061,      -1,      -1,   %3-L
 |    -1,    1037,      -1,      -1,      -1,    1037,      -1,   %L-3
 |    -1,      -1,    1037,      -1,      -1,      -1,      -1,   %4-L
 |    -1,      -1,      -1,      29,      -1,      -1,      -1,   %L-4
 |    -1,      -1,      -1,      29,      -1,      -1,    1043,   %5-L
 |    -1,      -1,      -1,      -1,    2061,      -1,      -1,   %L-5
|];

deadline = 
[| 36627,      -1,      -1,      -1,      -1,      -1,      -1,   %0-1
 | 36627,      -1,      -1,      -1,      -1,      -1,   70253,   %1-3
 |    -1,      -1,   53521,      -1,      -1,      -1,      -1,   %2-4
 |    -1,      -1,      -1,      -1,      -1,   53521,      -1,   %3-1
 |    -1,   37346,      -1,      -1,      -1,      -1,      -1,   %3-2
 |    -1,      -1,      -1,      -1,      -1,      -1,   70253,   %3-5
 |    -1,      -1,      -1,   69632,      -1,      -1,      -1,   %4-5
 |    -1,      -1,      -1,      -1,   78607,      -1,      -1,   %5-3
 | 36627,      -1,      -1,      -1,      -1,      -1,      -1,   %L-0
 |    -1,      -1,      -1,      -1,      -1,   53521,      -1,   %1-L
 |    -1,      -1,      -1,      -1,      -1,      -1,   70253,   %L-1
 |    -1,   37346,      -1,      -1,      -1,      -1,      -1,   %2-L
 |    -1,      -1,   53521,      -1,      -1,      -1,      -1,   %L-2
 | 36627,      -1,      -1,      -1,   78607,      -1,      -1,   %3-L
 |    -1,   37346,      -1,      -1,      -1,   53521,      -1,   %L-3
 |    -1,      -1,   53521,      -1,      -1,      -1,      -1,   %4-L
 |    -1,      -1,      -1,   69632,      -1,      -1,      -1,   %L-4
 |    -1,      -1,      -1,   69632,      -1,      -1,   70253,   %5-L
 |    -1,      -1,      -1,      -1,   78607,      -1,      -1,   %L-5
|];

min_start = 
[|     0,      -1,      -1,      -1,      -1,      -1,      -1,   %0-1
 |     0,      -1,      -1,      -1,      -1,      -1,       0,   %1-3
 |    -1,      -1,       0,      -1,      -1,      -1,      -1,   %2-4
 |    -1,      -1,      -1,      -1,      -1,       0,      -1,   %3-1
 |    -1,       0,      -1,      -1,      -1,      -1,      -1,   %3-2
 |    -1,      -1,      -1,      -1,      -1,      -1,       0,   %3-5
 |    -1,      -1,      -1,       0,      -1,      -1,      -1,   %4-5
 |    -1,      -1,      -1,      -1,       0,      -1,      -1,   %5-3
 |     0,      -1,      -1,      -1,      -1,      -1,      -1,   %L-0
 |    -1,      -1,      -1,      -1,      -1,       0,      -1,   %1-L
 |    -1,      -1,      -1,      -1,      -1,      -1,       0,   %L-1
 |    -1,       0,      -1,      -1,      -1,      -1,      -1,   %2-L
 |    -1,      -1,       0,      -1,      -1,      -1,      -1,   %L-2
 |     0,      -1,      -1,      -1,       0,      -1,      -1,   %3-L
 |    -1,       0,      -1,      -1,      -1,       0,      -1,   %L-3
 |    -1,      -1,       0,      -1,      -1,      -1,      -1,   %4-L
 |    -1,      -1,      -1,       0,      -1,      -1,      -1,   %L-4
 |    -1,      -1,      -1,       0,      -1,      -1,       0,   %5-L
 |    -1,      -1,      -1,      -1,       0,      -1,      -1,   %L-5
|];
